(set-info :smt-lib-version 2.6)
(set-logic UF)
(set-info :source |Benchmarks from the paper: "Extending Sledgehammer with SMT Solvers" by Jasmin Blanchette, Sascha Bohme, and Lawrence C. Paulson, CADE 2011.  Translated to SMT2 by Andrew Reynolds and Morgan Deters.|)
(set-info :category "industrial")
(set-info :status unknown)
(declare-sort S1 0)
(declare-sort S2 0)
(declare-sort S3 0)
(declare-sort S4 0)
(declare-sort S5 0)
(declare-sort S6 0)
(declare-sort S7 0)
(declare-sort S8 0)
(declare-sort S9 0)
(declare-sort S10 0)
(declare-sort S11 0)
(declare-sort S12 0)
(declare-sort S13 0)
(declare-sort S14 0)
(declare-sort S15 0)
(declare-sort S16 0)
(declare-sort S17 0)
(declare-sort S18 0)
(declare-sort S19 0)
(declare-sort S20 0)
(declare-sort S21 0)
(declare-sort S22 0)
(declare-sort S23 0)
(declare-sort S24 0)
(declare-sort S25 0)
(declare-sort S26 0)
(declare-sort S27 0)
(declare-sort S28 0)
(declare-sort S29 0)
(declare-sort S30 0)
(declare-sort S31 0)
(declare-sort S32 0)
(declare-sort S33 0)
(declare-sort S34 0)
(declare-sort S35 0)
(declare-sort S36 0)
(declare-sort S37 0)
(declare-sort S38 0)
(declare-sort S39 0)
(declare-sort S40 0)
(declare-sort S41 0)
(declare-sort S42 0)
(declare-sort S43 0)
(declare-sort S44 0)
(declare-sort S45 0)
(declare-sort S46 0)
(declare-sort S47 0)
(declare-sort S48 0)
(declare-sort S49 0)
(declare-sort S50 0)
(declare-sort S51 0)
(declare-sort S52 0)
(declare-sort S53 0)
(declare-sort S54 0)
(declare-sort S55 0)
(declare-sort S56 0)
(declare-sort S57 0)
(declare-sort S58 0)
(declare-sort S59 0)
(declare-sort S60 0)
(declare-sort S61 0)
(declare-sort S62 0)
(declare-sort S63 0)
(declare-sort S64 0)
(declare-sort S65 0)
(declare-sort S66 0)
(declare-sort S67 0)
(declare-sort S68 0)
(declare-sort S69 0)
(declare-sort S70 0)
(declare-sort S71 0)
(declare-sort S72 0)
(declare-sort S73 0)
(declare-sort S74 0)
(declare-sort S75 0)
(declare-sort S76 0)
(declare-sort S77 0)
(declare-sort S78 0)
(declare-sort S79 0)
(declare-sort S80 0)
(declare-sort S81 0)
(declare-sort S82 0)
(declare-sort S83 0)
(declare-sort S84 0)
(declare-sort S85 0)
(declare-sort S86 0)
(declare-sort S87 0)
(declare-sort S88 0)
(declare-sort S89 0)
(declare-sort S90 0)
(declare-sort S91 0)
(declare-sort S92 0)
(declare-sort S93 0)
(declare-sort S94 0)
(declare-sort S95 0)
(declare-sort S96 0)
(declare-sort S97 0)
(declare-sort S98 0)
(declare-sort S99 0)
(declare-fun f1 () S1)
(declare-fun f2 () S1)
(declare-fun f3 (S2 S3) S1)
(declare-fun f4 (S2) S2)
(declare-fun f5 (S3) S2)
(declare-fun f6 () S3)
(declare-fun f7 (S4 S6) S1)
(declare-fun f8 (S7 S5) S4)
(declare-fun f9 (S4) S7)
(declare-fun f10 (S6 S4) S1)
(declare-fun f11 (S5) S4)
(declare-fun f12 (S8 S10) S1)
(declare-fun f13 (S11 S9) S8)
(declare-fun f14 (S8) S11)
(declare-fun f15 (S10 S8) S1)
(declare-fun f16 (S9) S8)
(declare-fun f17 (S12 S14) S1)
(declare-fun f18 (S15 S13) S12)
(declare-fun f19 (S12) S15)
(declare-fun f20 (S14 S12) S1)
(declare-fun f21 (S13) S12)
(declare-fun f22 (S16 S13) S1)
(declare-fun f23 (S18 S17) S16)
(declare-fun f24 (S16) S18)
(declare-fun f25 (S13 S16) S1)
(declare-fun f26 (S17) S16)
(declare-fun f27 (S20 S19) S2)
(declare-fun f28 (S2) S20)
(declare-fun f29 (S3 S2) S1)
(declare-fun f30 (S19) S2)
(declare-fun f31 (S21 S4) S4)
(declare-fun f32 (S4) S21)
(declare-fun f33 (S22 S8) S8)
(declare-fun f34 (S8) S22)
(declare-fun f35 (S23 S12) S12)
(declare-fun f36 (S12) S23)
(declare-fun f37 (S24 S16) S16)
(declare-fun f38 (S16) S24)
(declare-fun f39 (S25 S2) S2)
(declare-fun f40 (S2) S25)
(declare-fun f41 (S26 S19) S1)
(declare-fun f42 (S27 S3) S26)
(declare-fun f43 (S28 S3) S27)
(declare-fun f44 () S28)
(declare-fun f45 (S29 S19) S3)
(declare-fun f46 (S30 S3) S29)
(declare-fun f47 () S30)
(declare-fun f48 () S27)
(declare-fun f49 (S31 S10) S10)
(declare-fun f50 () S31)
(declare-fun f51 () S3)
(declare-fun f52 (S3) S2)
(declare-fun f53 (S32 S3) S3)
(declare-fun f54 (S33 S3) S32)
(declare-fun f55 () S33)
(declare-fun f56 () S29)
(declare-fun f57 (S34 S9) S19)
(declare-fun f58 (S35 S36) S34)
(declare-fun f59 () S35)
(declare-fun f60 () S36)
(declare-fun f61 () S9)
(declare-fun f62 () S36)
(declare-fun f63 (S37 S9) S9)
(declare-fun f64 (S38 S8) S37)
(declare-fun f65 () S38)
(declare-fun f66 (S39 S28) S8)
(declare-fun f67 (S40 S28) S39)
(declare-fun f68 (S27) S40)
(declare-fun f69 (S41 S31) S37)
(declare-fun f70 () S41)
(declare-fun f71 (S42 S3) S31)
(declare-fun f72 () S42)
(declare-fun f73 (S43 S19) S10)
(declare-fun f74 (S44 S3) S43)
(declare-fun f75 (S45 S3) S44)
(declare-fun f76 () S45)
(declare-fun f77 () S3)
(declare-fun f78 () S3)
(declare-fun f79 (S46 S19) S19)
(declare-fun f80 (S47 S3) S46)
(declare-fun f81 () S47)
(declare-fun f82 () S3)
(declare-fun f83 () S19)
(declare-fun f84 () S10)
(declare-fun f85 () S19)
(declare-fun f86 (S36 S10) S3)
(declare-fun f87 (S48 S9) S5)
(declare-fun f88 () S48)
(declare-fun f89 (S49 S10) S37)
(declare-fun f90 () S49)
(declare-fun f91 () S3)
(declare-fun f92 () S19)
(declare-fun f93 () S5)
(declare-fun f94 () S37)
(declare-fun f95 (S50 S2) S46)
(declare-fun f96 () S50)
(declare-fun f97 () S9)
(declare-fun f98 (S51 S17) S17)
(declare-fun f99 (S52 S16) S51)
(declare-fun f100 () S52)
(declare-fun f101 () S17)
(declare-fun f102 (S53 S13) S13)
(declare-fun f103 (S54 S12) S53)
(declare-fun f104 () S54)
(declare-fun f105 () S13)
(declare-fun f106 (S55 S5) S5)
(declare-fun f107 (S56 S4) S55)
(declare-fun f108 () S56)
(declare-fun f109 (S57 S14) S53)
(declare-fun f110 () S57)
(declare-fun f111 (S58 S13) S51)
(declare-fun f112 () S58)
(declare-fun f113 (S59 S6) S55)
(declare-fun f114 () S59)
(declare-fun f115 (S61 S5) S13)
(declare-fun f116 (S62 S60) S61)
(declare-fun f117 () S62)
(declare-fun f118 (S60 S6) S14)
(declare-fun f119 (S64 S5) S17)
(declare-fun f120 (S65 S63) S64)
(declare-fun f121 () S65)
(declare-fun f122 (S63 S6) S13)
(declare-fun f123 (S67 S5) S9)
(declare-fun f124 (S68 S66) S67)
(declare-fun f125 () S68)
(declare-fun f126 (S66 S6) S10)
(declare-fun f127 (S70 S5) S19)
(declare-fun f128 (S71 S69) S70)
(declare-fun f129 () S71)
(declare-fun f130 (S69 S6) S3)
(declare-fun f131 (S73 S13) S5)
(declare-fun f132 (S74 S72) S73)
(declare-fun f133 () S74)
(declare-fun f134 (S72 S14) S6)
(declare-fun f135 (S76 S17) S5)
(declare-fun f136 (S77 S75) S76)
(declare-fun f137 () S77)
(declare-fun f138 (S75 S13) S6)
(declare-fun f139 (S79 S78) S48)
(declare-fun f140 () S79)
(declare-fun f141 (S78 S10) S6)
(declare-fun f142 (S81 S19) S5)
(declare-fun f143 (S82 S80) S81)
(declare-fun f144 () S82)
(declare-fun f145 (S80 S3) S6)
(declare-fun f146 (S84 S9) S13)
(declare-fun f147 (S85 S83) S84)
(declare-fun f148 () S85)
(declare-fun f149 (S83 S10) S14)
(declare-fun f150 (S87 S9) S17)
(declare-fun f151 (S88 S86) S87)
(declare-fun f152 () S88)
(declare-fun f153 (S86 S10) S13)
(declare-fun f154 (S90 S19) S9)
(declare-fun f155 (S91 S89) S90)
(declare-fun f156 () S91)
(declare-fun f157 (S89 S3) S10)
(declare-fun f158 (S93 S13) S9)
(declare-fun f159 (S94 S92) S93)
(declare-fun f160 () S94)
(declare-fun f161 (S92 S14) S10)
(declare-fun f162 (S96 S17) S9)
(declare-fun f163 (S97 S95) S96)
(declare-fun f164 () S97)
(declare-fun f165 (S95 S13) S10)
(declare-fun f166 (S2) S2)
(declare-fun f167 (S8) S8)
(declare-fun f168 (S4) S4)
(declare-fun f169 (S12) S12)
(declare-fun f170 (S16) S16)
(declare-fun f171 (S98 S30) S29)
(declare-fun f172 (S99 S3) S98)
(declare-fun f173 () S99)
(assert (not (= f1 f2)))
(assert (forall ((?v0 S2) (?v1 S3)) (= (= (f3 (f4 ?v0) ?v1) f1) (and (= (f3 (f5 f6) ?v1) f1) (= (f3 ?v0 ?v1) f1)))))
(assert (forall ((?v0 S4) (?v1 S5) (?v2 S6)) (= (= (f7 (f8 (f9 ?v0) ?v1) ?v2) f1) (and (= (f10 ?v2 (f11 ?v1)) f1) (= (f7 ?v0 ?v2) f1)))))
(assert (forall ((?v0 S8) (?v1 S9) (?v2 S10)) (= (= (f12 (f13 (f14 ?v0) ?v1) ?v2) f1) (and (= (f15 ?v2 (f16 ?v1)) f1) (= (f12 ?v0 ?v2) f1)))))
(assert (forall ((?v0 S12) (?v1 S13) (?v2 S14)) (= (= (f17 (f18 (f19 ?v0) ?v1) ?v2) f1) (and (= (f20 ?v2 (f21 ?v1)) f1) (= (f17 ?v0 ?v2) f1)))))
(assert (forall ((?v0 S16) (?v1 S17) (?v2 S13)) (= (= (f22 (f23 (f24 ?v0) ?v1) ?v2) f1) (and (= (f25 ?v2 (f26 ?v1)) f1) (= (f22 ?v0 ?v2) f1)))))
(assert (forall ((?v0 S2) (?v1 S19) (?v2 S3)) (= (= (f3 (f27 (f28 ?v0) ?v1) ?v2) f1) (and (= (f29 ?v2 (f30 ?v1)) f1) (= (f3 ?v0 ?v2) f1)))))
(assert (forall ((?v0 S4) (?v1 S4) (?v2 S6)) (= (= (f7 (f31 (f32 ?v0) ?v1) ?v2) f1) (and (= (f7 ?v1 ?v2) f1) (= (f7 ?v0 ?v2) f1)))))
(assert (forall ((?v0 S8) (?v1 S8) (?v2 S10)) (= (= (f12 (f33 (f34 ?v0) ?v1) ?v2) f1) (and (= (f12 ?v1 ?v2) f1) (= (f12 ?v0 ?v2) f1)))))
(assert (forall ((?v0 S12) (?v1 S12) (?v2 S14)) (= (= (f17 (f35 (f36 ?v0) ?v1) ?v2) f1) (and (= (f17 ?v1 ?v2) f1) (= (f17 ?v0 ?v2) f1)))))
(assert (forall ((?v0 S16) (?v1 S16) (?v2 S13)) (= (= (f22 (f37 (f38 ?v0) ?v1) ?v2) f1) (and (= (f22 ?v1 ?v2) f1) (= (f22 ?v0 ?v2) f1)))))
(assert (forall ((?v0 S2) (?v1 S2) (?v2 S3)) (= (= (f3 (f39 (f40 ?v0) ?v1) ?v2) f1) (and (= (f3 ?v1 ?v2) f1) (= (f3 ?v0 ?v2) f1)))))
(assert (forall ((?v0 S3) (?v1 S3) (?v2 S19)) (= (= (f41 (f42 (f43 f44 ?v0) ?v1) ?v2) f1) true)))
(assert (forall ((?v0 S3) (?v1 S19)) (= (f45 (f46 f47 ?v0) ?v1) ?v0)))
(assert (forall ((?v0 S3) (?v1 S19)) (= (= (f41 (f42 f48 ?v0) ?v1) f1) false)))
(assert (forall ((?v0 S10)) (= (f49 f50 ?v0) ?v0)))
(assert (not false))
(assert (= (f3 (f5 f6) f51) f1))
(assert (let ((?v_0 (f45 f56 (f57 (f58 f59 f60) f61)))) (= (f3 (f52 f51) (f53 (f54 f55 ?v_0) (f45 f56 (f57 (f58 f59 f62) (f63 (f64 f65 (f66 (f67 (f68 f48) f44) f44)) (f63 (f69 f70 (f71 f72 ?v_0)) f61)))))) f1)))
(assert (= (f15 (f73 (f74 (f75 f76 f77) f78) (f79 (f80 f81 f82) f83)) (f16 f61)) f1))
(assert (= f84 (f73 (f74 (f75 f76 f77) f78) (f79 (f80 f81 f82) f83))))
(assert (= f85 (f79 (f80 f81 f82) f83)))
(assert (forall ((?v0 S10)) (=> (= (f15 ?v0 (f16 f61)) f1) (and (not (= (f86 f60 ?v0) f6)) (not (= (f86 f62 ?v0) f6))))))
(assert (let ((?v_0 (f45 f56 (f57 (f58 f59 f60) f61)))) (= (f87 f88 (f63 (f89 f90 (f73 (f74 (f75 f76 ?v_0) f6) (f79 (f80 f81 f91) f92))) (f63 (f69 f70 (f71 f72 ?v_0)) f61))) f93)))
(assert (not (= f82 f6)))
(assert (let ((?v_0 (f45 f56 (f57 (f58 f59 f60) f61)))) (or (and (= (f3 (f5 f6) ?v_0) f1) (= (f3 (f52 ?v_0) f82) f1)) (and (= (f3 (f5 ?v_0) f6) f1) (= (f3 (f52 f82) ?v_0) f1)))))
(assert (forall ((?v0 S3)) (= (= (f3 (f5 f91) ?v0) f1) (= (f3 (f52 f6) ?v0) f1))))
(assert (forall ((?v0 S3) (?v1 S3) (?v2 S3)) (let ((?v_0 (f73 (f74 (f75 f76 ?v1) ?v2) f92))) (= (f49 (f71 f72 ?v0) ?v_0) ?v_0))))
(assert (forall ((?v0 S3) (?v1 S19)) (= (f45 f56 (f79 (f80 f81 ?v0) ?v1)) (f53 (f54 f55 ?v0) (f45 f56 ?v1)))))
(assert (= (f45 f56 f92) f91))
(assert (forall ((?v0 S9)) (let ((?v_0 (f45 f56 (f57 (f58 f59 f60) ?v0)))) (= (f63 f94 ?v0) (f63 (f89 f90 (f73 (f74 (f75 f76 ?v_0) f6) (f79 (f80 f81 f91) f92))) (f63 (f69 f70 (f71 f72 ?v_0)) ?v0))))))
(assert (forall ((?v0 S3) (?v1 S3)) (=> (not (= ?v0 f6)) (=> (not (= ?v1 f6)) (= (f3 (f52 f6) (f53 (f54 f55 ?v0) ?v1)) f1)))))
(assert (forall ((?v0 S3) (?v1 S3)) (= (f3 (f5 f6) (f53 (f54 f55 ?v0) ?v1)) f1)))
(assert (forall ((?v0 S3) (?v1 S3)) (let ((?v_0 (f5 f6))) (=> (= (f3 ?v_0 ?v0) f1) (=> (= (f3 ?v_0 ?v1) f1) (= (f3 ?v_0 (f53 (f54 f55 ?v0) ?v1)) f1))))))
(assert (forall ((?v0 S2) (?v1 S19)) (= (= (f79 (f95 f96 ?v0) ?v1) f92) (forall ((?v2 S3)) (=> (= (f29 ?v2 (f30 ?v1)) f1) (not (= (f3 ?v0 ?v2) f1)))))))
(assert (forall ((?v0 S8) (?v1 S9)) (= (= (f63 (f64 f65 ?v0) ?v1) f97) (forall ((?v2 S10)) (=> (= (f15 ?v2 (f16 ?v1)) f1) (not (= (f12 ?v0 ?v2) f1)))))))
(assert (forall ((?v0 S16) (?v1 S17)) (= (= (f98 (f99 f100 ?v0) ?v1) f101) (forall ((?v2 S13)) (=> (= (f25 ?v2 (f26 ?v1)) f1) (not (= (f22 ?v0 ?v2) f1)))))))
(assert (forall ((?v0 S12) (?v1 S13)) (= (= (f102 (f103 f104 ?v0) ?v1) f105) (forall ((?v2 S14)) (=> (= (f20 ?v2 (f21 ?v1)) f1) (not (= (f17 ?v0 ?v2) f1)))))))
(assert (forall ((?v0 S4) (?v1 S5)) (= (= (f106 (f107 f108 ?v0) ?v1) f93) (forall ((?v2 S6)) (=> (= (f10 ?v2 (f11 ?v1)) f1) (not (= (f7 ?v0 ?v2) f1)))))))
(assert (= (f3 (f52 f6) f91) f1))
(assert (= (f3 (f5 f6) f91) f1))
(assert (not (= (f3 (f52 f91) f6) f1)))
(assert (forall ((?v0 S19)) (= (= (f45 f56 ?v0) f6) (= (f29 f6 (f30 ?v0)) f1))))
(assert (forall ((?v0 S3) (?v1 S3)) (=> (not (= ?v0 ?v1)) (=> (=> (= (f3 (f52 ?v0) ?v1) f1) false) (=> (=> (= (f3 (f52 ?v1) ?v0) f1) false) false)))))
(assert (forall ((?v0 S14) (?v1 S13) (?v2 S14) (?v3 S13)) (= (= (f102 (f109 f110 ?v0) ?v1) (f102 (f109 f110 ?v2) ?v3)) (and (= ?v0 ?v2) (= ?v1 ?v3)))))
(assert (forall ((?v0 S13) (?v1 S17) (?v2 S13) (?v3 S17)) (= (= (f98 (f111 f112 ?v0) ?v1) (f98 (f111 f112 ?v2) ?v3)) (and (= ?v0 ?v2) (= ?v1 ?v3)))))
(assert (forall ((?v0 S10) (?v1 S9) (?v2 S10) (?v3 S9)) (= (= (f63 (f89 f90 ?v0) ?v1) (f63 (f89 f90 ?v2) ?v3)) (and (= ?v0 ?v2) (= ?v1 ?v3)))))
(assert (forall ((?v0 S3) (?v1 S19) (?v2 S3) (?v3 S19)) (= (= (f79 (f80 f81 ?v0) ?v1) (f79 (f80 f81 ?v2) ?v3)) (and (= ?v0 ?v2) (= ?v1 ?v3)))))
(assert (forall ((?v0 S6) (?v1 S5) (?v2 S6) (?v3 S5)) (= (= (f106 (f113 f114 ?v0) ?v1) (f106 (f113 f114 ?v2) ?v3)) (and (= ?v0 ?v2) (= ?v1 ?v3)))))
(assert (forall ((?v0 S14) (?v1 S13)) (not (= (f102 (f109 f110 ?v0) ?v1) ?v1))))
(assert (forall ((?v0 S13) (?v1 S17)) (not (= (f98 (f111 f112 ?v0) ?v1) ?v1))))
(assert (forall ((?v0 S10) (?v1 S9)) (not (= (f63 (f89 f90 ?v0) ?v1) ?v1))))
(assert (forall ((?v0 S3) (?v1 S19)) (not (= (f79 (f80 f81 ?v0) ?v1) ?v1))))
(assert (forall ((?v0 S6) (?v1 S5)) (not (= (f106 (f113 f114 ?v0) ?v1) ?v1))))
(assert (forall ((?v0 S13) (?v1 S14)) (not (= ?v0 (f102 (f109 f110 ?v1) ?v0)))))
(assert (forall ((?v0 S17) (?v1 S13)) (not (= ?v0 (f98 (f111 f112 ?v1) ?v0)))))
(assert (forall ((?v0 S9) (?v1 S10)) (not (= ?v0 (f63 (f89 f90 ?v1) ?v0)))))
(assert (forall ((?v0 S19) (?v1 S3)) (not (= ?v0 (f79 (f80 f81 ?v1) ?v0)))))
(assert (forall ((?v0 S5) (?v1 S6)) (not (= ?v0 (f106 (f113 f114 ?v1) ?v0)))))
(assert (forall ((?v0 S3) (?v1 S3)) (=> (= (f3 (f5 ?v0) ?v1) f1) (=> (= (f3 (f5 ?v1) ?v0) f1) (= ?v0 ?v1)))))
(assert (forall ((?v0 S3) (?v1 S3) (?v2 S3)) (let ((?v_0 (f5 ?v0))) (=> (= (f3 ?v_0 ?v1) f1) (=> (= (f3 (f5 ?v1) ?v2) f1) (= (f3 ?v_0 ?v2) f1))))))
(assert (forall ((?v0 S3) (?v1 S3)) (or (= (f3 (f5 ?v0) ?v1) f1) (= (f3 (f5 ?v1) ?v0) f1))))
(assert (forall ((?v0 S3)) (= (f3 (f5 ?v0) ?v0) f1)))
(assert (forall ((?v0 S3) (?v1 S3)) (or (= (f3 (f52 ?v0) ?v1) f1) (or (= ?v0 ?v1) (= (f3 (f52 ?v1) ?v0) f1)))))
(assert (forall ((?v0 S3) (?v1 S3) (?v2 S3)) (let ((?v_0 (f54 f55 ?v0))) (= (f53 (f54 f55 (f53 ?v_0 ?v1)) ?v2) (f53 ?v_0 (f53 (f54 f55 ?v1) ?v2))))))
(assert (forall ((?v0 S3) (?v1 S3) (?v2 S3)) (let ((?v_1 (f54 f55 ?v0)) (?v_0 (f54 f55 ?v1))) (= (f53 ?v_1 (f53 ?v_0 ?v2)) (f53 ?v_0 (f53 ?v_1 ?v2))))))
(assert (forall ((?v0 S3) (?v1 S3)) (= (f53 (f54 f55 ?v0) ?v1) (f53 (f54 f55 ?v1) ?v0))))
(assert (forall ((?v0 S3) (?v1 S3) (?v2 S19) (?v3 S3) (?v4 S3) (?v5 S19)) (= (= (f73 (f74 (f75 f76 ?v0) ?v1) ?v2) (f73 (f74 (f75 f76 ?v3) ?v4) ?v5)) (and (= ?v0 ?v3) (and (= ?v1 ?v4) (= ?v2 ?v5))))))
(assert (forall ((?v0 S9)) (= (f63 (f69 f70 f50) ?v0) ?v0)))
(assert (forall ((?v0 S8) (?v1 S8) (?v2 S9)) (= (f63 (f64 f65 ?v0) (f63 (f64 f65 ?v1) ?v2)) (f63 (f64 f65 (f33 (f34 ?v0) ?v1)) ?v2))))
(assert (forall ((?v0 S4) (?v1 S4) (?v2 S5)) (= (f106 (f107 f108 ?v0) (f106 (f107 f108 ?v1) ?v2)) (f106 (f107 f108 (f31 (f32 ?v0) ?v1)) ?v2))))
(assert (forall ((?v0 S12) (?v1 S12) (?v2 S13)) (= (f102 (f103 f104 ?v0) (f102 (f103 f104 ?v1) ?v2)) (f102 (f103 f104 (f35 (f36 ?v0) ?v1)) ?v2))))
(assert (forall ((?v0 S16) (?v1 S16) (?v2 S17)) (= (f98 (f99 f100 ?v0) (f98 (f99 f100 ?v1) ?v2)) (f98 (f99 f100 (f37 (f38 ?v0) ?v1)) ?v2))))
(assert (forall ((?v0 S2) (?v1 S2) (?v2 S19)) (= (f79 (f95 f96 ?v0) (f79 (f95 f96 ?v1) ?v2)) (f79 (f95 f96 (f39 (f40 ?v0) ?v1)) ?v2))))
(assert (not (= f6 f91)))
(assert (not (= f91 f6)))
(assert (= (f3 (f5 f6) f6) f1))
(assert (forall ((?v0 S3) (?v1 S3) (?v2 S19)) (=> (= (f29 ?v0 (f30 (f79 (f80 f81 ?v1) ?v2))) f1) (or (= ?v0 ?v1) (= (f29 ?v0 (f30 ?v2)) f1)))))
(assert (forall ((?v0 S10) (?v1 S10) (?v2 S9)) (=> (= (f15 ?v0 (f16 (f63 (f89 f90 ?v1) ?v2))) f1) (or (= ?v0 ?v1) (= (f15 ?v0 (f16 ?v2)) f1)))))
(assert (forall ((?v0 S14) (?v1 S14) (?v2 S13)) (=> (= (f20 ?v0 (f21 (f102 (f109 f110 ?v1) ?v2))) f1) (or (= ?v0 ?v1) (= (f20 ?v0 (f21 ?v2)) f1)))))
(assert (forall ((?v0 S13) (?v1 S13) (?v2 S17)) (=> (= (f25 ?v0 (f26 (f98 (f111 f112 ?v1) ?v2))) f1) (or (= ?v0 ?v1) (= (f25 ?v0 (f26 ?v2)) f1)))))
(assert (forall ((?v0 S6) (?v1 S6) (?v2 S5)) (=> (= (f10 ?v0 (f11 (f106 (f113 f114 ?v1) ?v2))) f1) (or (= ?v0 ?v1) (= (f10 ?v0 (f11 ?v2)) f1)))))
(assert (forall ((?v0 S13) (?v1 S17)) (not (= (f98 (f111 f112 ?v0) ?v1) f101))))
(assert (forall ((?v0 S14) (?v1 S13)) (not (= (f102 (f109 f110 ?v0) ?v1) f105))))
(assert (forall ((?v0 S6) (?v1 S5)) (not (= (f106 (f113 f114 ?v0) ?v1) f93))))
(assert (forall ((?v0 S3) (?v1 S19)) (not (= (f79 (f80 f81 ?v0) ?v1) f92))))
(assert (forall ((?v0 S10) (?v1 S9)) (not (= (f63 (f89 f90 ?v0) ?v1) f97))))
(assert (forall ((?v0 S13) (?v1 S17)) (not (= f101 (f98 (f111 f112 ?v0) ?v1)))))
(assert (forall ((?v0 S14) (?v1 S13)) (not (= f105 (f102 (f109 f110 ?v0) ?v1)))))
(assert (forall ((?v0 S6) (?v1 S5)) (not (= f93 (f106 (f113 f114 ?v0) ?v1)))))
(assert (forall ((?v0 S3) (?v1 S19)) (not (= f92 (f79 (f80 f81 ?v0) ?v1)))))
(assert (forall ((?v0 S10) (?v1 S9)) (not (= f97 (f63 (f89 f90 ?v0) ?v1)))))
(assert (not (= f6 f91)))
(assert (forall ((?v0 S3) (?v1 S3)) (= (= (f3 (f52 ?v0) ?v1) f1) (and (= (f3 (f5 ?v0) ?v1) f1) (not (= ?v0 ?v1))))))
(assert (forall ((?v0 S31) (?v1 S10) (?v2 S9)) (let ((?v_0 (f69 f70 ?v0))) (= (f63 ?v_0 (f63 (f89 f90 ?v1) ?v2)) (f63 (f89 f90 (f49 ?v0 ?v1)) (f63 ?v_0 ?v2))))))
(assert (forall ((?v0 S36) (?v1 S10) (?v2 S9)) (let ((?v_0 (f58 f59 ?v0))) (= (f57 ?v_0 (f63 (f89 f90 ?v1) ?v2)) (f79 (f80 f81 (f86 ?v0 ?v1)) (f57 ?v_0 ?v2))))))
(assert (forall ((?v0 S60) (?v1 S6) (?v2 S5)) (let ((?v_0 (f116 f117 ?v0))) (= (f115 ?v_0 (f106 (f113 f114 ?v1) ?v2)) (f102 (f109 f110 (f118 ?v0 ?v1)) (f115 ?v_0 ?v2))))))
(assert (forall ((?v0 S63) (?v1 S6) (?v2 S5)) (let ((?v_0 (f120 f121 ?v0))) (= (f119 ?v_0 (f106 (f113 f114 ?v1) ?v2)) (f98 (f111 f112 (f122 ?v0 ?v1)) (f119 ?v_0 ?v2))))))
(assert (forall ((?v0 S66) (?v1 S6) (?v2 S5)) (let ((?v_0 (f124 f125 ?v0))) (= (f123 ?v_0 (f106 (f113 f114 ?v1) ?v2)) (f63 (f89 f90 (f126 ?v0 ?v1)) (f123 ?v_0 ?v2))))))
(assert (forall ((?v0 S69) (?v1 S6) (?v2 S5)) (let ((?v_0 (f128 f129 ?v0))) (= (f127 ?v_0 (f106 (f113 f114 ?v1) ?v2)) (f79 (f80 f81 (f130 ?v0 ?v1)) (f127 ?v_0 ?v2))))))
(assert (forall ((?v0 S72) (?v1 S14) (?v2 S13)) (let ((?v_0 (f132 f133 ?v0))) (= (f131 ?v_0 (f102 (f109 f110 ?v1) ?v2)) (f106 (f113 f114 (f134 ?v0 ?v1)) (f131 ?v_0 ?v2))))))
(assert (forall ((?v0 S75) (?v1 S13) (?v2 S17)) (let ((?v_0 (f136 f137 ?v0))) (= (f135 ?v_0 (f98 (f111 f112 ?v1) ?v2)) (f106 (f113 f114 (f138 ?v0 ?v1)) (f135 ?v_0 ?v2))))))
(assert (forall ((?v0 S78) (?v1 S10) (?v2 S9)) (let ((?v_0 (f139 f140 ?v0))) (= (f87 ?v_0 (f63 (f89 f90 ?v1) ?v2)) (f106 (f113 f114 (f141 ?v0 ?v1)) (f87 ?v_0 ?v2))))))
(assert (forall ((?v0 S80) (?v1 S3) (?v2 S19)) (let ((?v_0 (f143 f144 ?v0))) (= (f142 ?v_0 (f79 (f80 f81 ?v1) ?v2)) (f106 (f113 f114 (f145 ?v0 ?v1)) (f142 ?v_0 ?v2))))))
(assert (forall ((?v0 S83) (?v1 S10) (?v2 S9)) (let ((?v_0 (f147 f148 ?v0))) (= (f146 ?v_0 (f63 (f89 f90 ?v1) ?v2)) (f102 (f109 f110 (f149 ?v0 ?v1)) (f146 ?v_0 ?v2))))))
(assert (forall ((?v0 S86) (?v1 S10) (?v2 S9)) (let ((?v_0 (f151 f152 ?v0))) (= (f150 ?v_0 (f63 (f89 f90 ?v1) ?v2)) (f98 (f111 f112 (f153 ?v0 ?v1)) (f150 ?v_0 ?v2))))))
(assert (forall ((?v0 S89) (?v1 S3) (?v2 S19)) (let ((?v_0 (f155 f156 ?v0))) (= (f154 ?v_0 (f79 (f80 f81 ?v1) ?v2)) (f63 (f89 f90 (f157 ?v0 ?v1)) (f154 ?v_0 ?v2))))))
(assert (forall ((?v0 S92) (?v1 S14) (?v2 S13)) (let ((?v_0 (f159 f160 ?v0))) (= (f158 ?v_0 (f102 (f109 f110 ?v1) ?v2)) (f63 (f89 f90 (f161 ?v0 ?v1)) (f158 ?v_0 ?v2))))))
(assert (forall ((?v0 S95) (?v1 S13) (?v2 S17)) (let ((?v_0 (f163 f164 ?v0))) (= (f162 ?v_0 (f98 (f111 f112 ?v1) ?v2)) (f63 (f89 f90 (f165 ?v0 ?v1)) (f162 ?v_0 ?v2))))))
(assert (forall ((?v0 S31) (?v1 S9) (?v2 S31)) (= (= (f63 (f69 f70 ?v0) ?v1) (f63 (f69 f70 ?v2) ?v1)) (forall ((?v3 S10)) (=> (= (f15 ?v3 (f16 ?v1)) f1) (= (f49 ?v0 ?v3) (f49 ?v2 ?v3)))))))
(assert (forall ((?v0 S36) (?v1 S9) (?v2 S36)) (= (= (f57 (f58 f59 ?v0) ?v1) (f57 (f58 f59 ?v2) ?v1)) (forall ((?v3 S10)) (=> (= (f15 ?v3 (f16 ?v1)) f1) (= (f86 ?v0 ?v3) (f86 ?v2 ?v3)))))))
(assert (forall ((?v0 S78) (?v1 S9) (?v2 S78)) (= (= (f87 (f139 f140 ?v0) ?v1) (f87 (f139 f140 ?v2) ?v1)) (forall ((?v3 S10)) (=> (= (f15 ?v3 (f16 ?v1)) f1) (= (f141 ?v0 ?v3) (f141 ?v2 ?v3)))))))
(assert (forall ((?v0 S83) (?v1 S9) (?v2 S83)) (= (= (f146 (f147 f148 ?v0) ?v1) (f146 (f147 f148 ?v2) ?v1)) (forall ((?v3 S10)) (=> (= (f15 ?v3 (f16 ?v1)) f1) (= (f149 ?v0 ?v3) (f149 ?v2 ?v3)))))))
(assert (forall ((?v0 S86) (?v1 S9) (?v2 S86)) (= (= (f150 (f151 f152 ?v0) ?v1) (f150 (f151 f152 ?v2) ?v1)) (forall ((?v3 S10)) (=> (= (f15 ?v3 (f16 ?v1)) f1) (= (f153 ?v0 ?v3) (f153 ?v2 ?v3)))))))
(assert (forall ((?v0 S89) (?v1 S19) (?v2 S89)) (= (= (f154 (f155 f156 ?v0) ?v1) (f154 (f155 f156 ?v2) ?v1)) (forall ((?v3 S3)) (=> (= (f29 ?v3 (f30 ?v1)) f1) (= (f157 ?v0 ?v3) (f157 ?v2 ?v3)))))))
(assert (forall ((?v0 S80) (?v1 S19) (?v2 S80)) (= (= (f142 (f143 f144 ?v0) ?v1) (f142 (f143 f144 ?v2) ?v1)) (forall ((?v3 S3)) (=> (= (f29 ?v3 (f30 ?v1)) f1) (= (f145 ?v0 ?v3) (f145 ?v2 ?v3)))))))
(assert (forall ((?v0 S66) (?v1 S5) (?v2 S66)) (= (= (f123 (f124 f125 ?v0) ?v1) (f123 (f124 f125 ?v2) ?v1)) (forall ((?v3 S6)) (=> (= (f10 ?v3 (f11 ?v1)) f1) (= (f126 ?v0 ?v3) (f126 ?v2 ?v3)))))))
(assert (forall ((?v0 S69) (?v1 S5) (?v2 S69)) (= (= (f127 (f128 f129 ?v0) ?v1) (f127 (f128 f129 ?v2) ?v1)) (forall ((?v3 S6)) (=> (= (f10 ?v3 (f11 ?v1)) f1) (= (f130 ?v0 ?v3) (f130 ?v2 ?v3)))))))
(assert (forall ((?v0 S63) (?v1 S5) (?v2 S63)) (= (= (f119 (f120 f121 ?v0) ?v1) (f119 (f120 f121 ?v2) ?v1)) (forall ((?v3 S6)) (=> (= (f10 ?v3 (f11 ?v1)) f1) (= (f122 ?v0 ?v3) (f122 ?v2 ?v3)))))))
(assert (forall ((?v0 S60) (?v1 S5) (?v2 S60)) (= (= (f115 (f116 f117 ?v0) ?v1) (f115 (f116 f117 ?v2) ?v1)) (forall ((?v3 S6)) (=> (= (f10 ?v3 (f11 ?v1)) f1) (= (f118 ?v0 ?v3) (f118 ?v2 ?v3)))))))
(assert (forall ((?v0 S92) (?v1 S13) (?v2 S92)) (= (= (f158 (f159 f160 ?v0) ?v1) (f158 (f159 f160 ?v2) ?v1)) (forall ((?v3 S14)) (=> (= (f20 ?v3 (f21 ?v1)) f1) (= (f161 ?v0 ?v3) (f161 ?v2 ?v3)))))))
(assert (forall ((?v0 S72) (?v1 S13) (?v2 S72)) (= (= (f131 (f132 f133 ?v0) ?v1) (f131 (f132 f133 ?v2) ?v1)) (forall ((?v3 S14)) (=> (= (f20 ?v3 (f21 ?v1)) f1) (= (f134 ?v0 ?v3) (f134 ?v2 ?v3)))))))
(assert (forall ((?v0 S95) (?v1 S17) (?v2 S95)) (= (= (f162 (f163 f164 ?v0) ?v1) (f162 (f163 f164 ?v2) ?v1)) (forall ((?v3 S13)) (=> (= (f25 ?v3 (f26 ?v1)) f1) (= (f165 ?v0 ?v3) (f165 ?v2 ?v3)))))))
(assert (forall ((?v0 S75) (?v1 S17) (?v2 S75)) (= (= (f135 (f136 f137 ?v0) ?v1) (f135 (f136 f137 ?v2) ?v1)) (forall ((?v3 S13)) (=> (= (f25 ?v3 (f26 ?v1)) f1) (= (f138 ?v0 ?v3) (f138 ?v2 ?v3)))))))
(assert (forall ((?v0 S31) (?v1 S9)) (= (= (f63 (f69 f70 ?v0) ?v1) f97) (= ?v1 f97))))
(assert (forall ((?v0 S36) (?v1 S9)) (= (= (f57 (f58 f59 ?v0) ?v1) f92) (= ?v1 f97))))
(assert (forall ((?v0 S95) (?v1 S17)) (= (= (f162 (f163 f164 ?v0) ?v1) f97) (= ?v1 f101))))
(assert (forall ((?v0 S92) (?v1 S13)) (= (= (f158 (f159 f160 ?v0) ?v1) f97) (= ?v1 f105))))
(assert (forall ((?v0 S66) (?v1 S5)) (= (= (f123 (f124 f125 ?v0) ?v1) f97) (= ?v1 f93))))
(assert (forall ((?v0 S89) (?v1 S19)) (= (= (f154 (f155 f156 ?v0) ?v1) f97) (= ?v1 f92))))
(assert (forall ((?v0 S86) (?v1 S9)) (= (= (f150 (f151 f152 ?v0) ?v1) f101) (= ?v1 f97))))
(assert (forall ((?v0 S83) (?v1 S9)) (= (= (f146 (f147 f148 ?v0) ?v1) f105) (= ?v1 f97))))
(assert (forall ((?v0 S78) (?v1 S9)) (= (= (f87 (f139 f140 ?v0) ?v1) f93) (= ?v1 f97))))
(assert (forall ((?v0 S80) (?v1 S19)) (= (= (f142 (f143 f144 ?v0) ?v1) f93) (= ?v1 f92))))
(assert (forall ((?v0 S75) (?v1 S17)) (= (= (f135 (f136 f137 ?v0) ?v1) f93) (= ?v1 f101))))
(assert (forall ((?v0 S72) (?v1 S13)) (= (= (f131 (f132 f133 ?v0) ?v1) f93) (= ?v1 f105))))
(assert (forall ((?v0 S69) (?v1 S5)) (= (= (f127 (f128 f129 ?v0) ?v1) f92) (= ?v1 f93))))
(assert (forall ((?v0 S63) (?v1 S5)) (= (= (f119 (f120 f121 ?v0) ?v1) f101) (= ?v1 f93))))
(assert (forall ((?v0 S60) (?v1 S5)) (= (= (f115 (f116 f117 ?v0) ?v1) f105) (= ?v1 f93))))
(assert (forall ((?v0 S31)) (= (f63 (f69 f70 ?v0) f97) f97)))
(assert (forall ((?v0 S36)) (= (f57 (f58 f59 ?v0) f97) f92)))
(assert (forall ((?v0 S86)) (= (f150 (f151 f152 ?v0) f97) f101)))
(assert (forall ((?v0 S83)) (= (f146 (f147 f148 ?v0) f97) f105)))
(assert (forall ((?v0 S78)) (= (f87 (f139 f140 ?v0) f97) f93)))
(assert (forall ((?v0 S95)) (= (f162 (f163 f164 ?v0) f101) f97)))
(assert (forall ((?v0 S92)) (= (f158 (f159 f160 ?v0) f105) f97)))
(assert (forall ((?v0 S66)) (= (f123 (f124 f125 ?v0) f93) f97)))
(assert (forall ((?v0 S89)) (= (f154 (f155 f156 ?v0) f92) f97)))
(assert (forall ((?v0 S80)) (= (f142 (f143 f144 ?v0) f92) f93)))
(assert (forall ((?v0 S75)) (= (f135 (f136 f137 ?v0) f101) f93)))
(assert (forall ((?v0 S72)) (= (f131 (f132 f133 ?v0) f105) f93)))
(assert (forall ((?v0 S69)) (= (f127 (f128 f129 ?v0) f93) f92)))
(assert (forall ((?v0 S63)) (= (f119 (f120 f121 ?v0) f93) f101)))
(assert (forall ((?v0 S60)) (= (f115 (f116 f117 ?v0) f93) f105)))
(assert (forall ((?v0 S31) (?v1 S9)) (= (= f97 (f63 (f69 f70 ?v0) ?v1)) (= ?v1 f97))))
(assert (forall ((?v0 S36) (?v1 S9)) (= (= f92 (f57 (f58 f59 ?v0) ?v1)) (= ?v1 f97))))
(assert (forall ((?v0 S95) (?v1 S17)) (= (= f97 (f162 (f163 f164 ?v0) ?v1)) (= ?v1 f101))))
(assert (forall ((?v0 S92) (?v1 S13)) (= (= f97 (f158 (f159 f160 ?v0) ?v1)) (= ?v1 f105))))
(assert (forall ((?v0 S66) (?v1 S5)) (= (= f97 (f123 (f124 f125 ?v0) ?v1)) (= ?v1 f93))))
(assert (forall ((?v0 S89) (?v1 S19)) (= (= f97 (f154 (f155 f156 ?v0) ?v1)) (= ?v1 f92))))
(assert (forall ((?v0 S86) (?v1 S9)) (= (= f101 (f150 (f151 f152 ?v0) ?v1)) (= ?v1 f97))))
(assert (forall ((?v0 S83) (?v1 S9)) (= (= f105 (f146 (f147 f148 ?v0) ?v1)) (= ?v1 f97))))
(assert (forall ((?v0 S78) (?v1 S9)) (= (= f93 (f87 (f139 f140 ?v0) ?v1)) (= ?v1 f97))))
(assert (forall ((?v0 S80) (?v1 S19)) (= (= f93 (f142 (f143 f144 ?v0) ?v1)) (= ?v1 f92))))
(assert (forall ((?v0 S75) (?v1 S17)) (= (= f93 (f135 (f136 f137 ?v0) ?v1)) (= ?v1 f101))))
(assert (forall ((?v0 S72) (?v1 S13)) (= (= f93 (f131 (f132 f133 ?v0) ?v1)) (= ?v1 f105))))
(assert (forall ((?v0 S69) (?v1 S5)) (= (= f92 (f127 (f128 f129 ?v0) ?v1)) (= ?v1 f93))))
(assert (forall ((?v0 S63) (?v1 S5)) (= (= f101 (f119 (f120 f121 ?v0) ?v1)) (= ?v1 f93))))
(assert (forall ((?v0 S60) (?v1 S5)) (= (= f105 (f115 (f116 f117 ?v0) ?v1)) (= ?v1 f93))))
(assert (forall ((?v0 S8) (?v1 S10) (?v2 S9)) (let ((?v_1 (f64 f65 ?v0)) (?v_0 (f89 f90 ?v1))) (let ((?v_2 (f63 ?v_1 ?v2))) (= (f63 ?v_1 (f63 ?v_0 ?v2)) (ite (= (f12 ?v0 ?v1) f1) (f63 ?v_0 ?v_2) ?v_2))))))
(assert (forall ((?v0 S12) (?v1 S14) (?v2 S13)) (let ((?v_1 (f103 f104 ?v0)) (?v_0 (f109 f110 ?v1))) (let ((?v_2 (f102 ?v_1 ?v2))) (= (f102 ?v_1 (f102 ?v_0 ?v2)) (ite (= (f17 ?v0 ?v1) f1) (f102 ?v_0 ?v_2) ?v_2))))))
(assert (forall ((?v0 S16) (?v1 S13) (?v2 S17)) (let ((?v_1 (f99 f100 ?v0)) (?v_0 (f111 f112 ?v1))) (let ((?v_2 (f98 ?v_1 ?v2))) (= (f98 ?v_1 (f98 ?v_0 ?v2)) (ite (= (f22 ?v0 ?v1) f1) (f98 ?v_0 ?v_2) ?v_2))))))
(assert (forall ((?v0 S2) (?v1 S3) (?v2 S19)) (let ((?v_1 (f95 f96 ?v0)) (?v_0 (f80 f81 ?v1))) (let ((?v_2 (f79 ?v_1 ?v2))) (= (f79 ?v_1 (f79 ?v_0 ?v2)) (ite (= (f3 ?v0 ?v1) f1) (f79 ?v_0 ?v_2) ?v_2))))))
(assert (forall ((?v0 S4) (?v1 S6) (?v2 S5)) (let ((?v_1 (f107 f108 ?v0)) (?v_0 (f113 f114 ?v1))) (let ((?v_2 (f106 ?v_1 ?v2))) (= (f106 ?v_1 (f106 ?v_0 ?v2)) (ite (= (f7 ?v0 ?v1) f1) (f106 ?v_0 ?v_2) ?v_2))))))
(assert (forall ((?v0 S2) (?v1 S19)) (= (= (f79 (f95 f96 ?v0) ?v1) ?v1) (forall ((?v2 S3)) (=> (= (f29 ?v2 (f30 ?v1)) f1) (= (f3 ?v0 ?v2) f1))))))
(assert (forall ((?v0 S8) (?v1 S9)) (= (= (f63 (f64 f65 ?v0) ?v1) ?v1) (forall ((?v2 S10)) (=> (= (f15 ?v2 (f16 ?v1)) f1) (= (f12 ?v0 ?v2) f1))))))
(assert (forall ((?v0 S4) (?v1 S5)) (= (= (f106 (f107 f108 ?v0) ?v1) ?v1) (forall ((?v2 S6)) (=> (= (f10 ?v2 (f11 ?v1)) f1) (= (f7 ?v0 ?v2) f1))))))
(assert (forall ((?v0 S12) (?v1 S13)) (= (= (f102 (f103 f104 ?v0) ?v1) ?v1) (forall ((?v2 S14)) (=> (= (f20 ?v2 (f21 ?v1)) f1) (= (f17 ?v0 ?v2) f1))))))
(assert (forall ((?v0 S16) (?v1 S17)) (= (= (f98 (f99 f100 ?v0) ?v1) ?v1) (forall ((?v2 S13)) (=> (= (f25 ?v2 (f26 ?v1)) f1) (= (f22 ?v0 ?v2) f1))))))
(assert (forall ((?v0 S2) (?v1 S19)) (= (f30 (f79 (f95 f96 ?v0) ?v1)) (f166 (f27 (f28 ?v0) ?v1)))))
(assert (forall ((?v0 S8) (?v1 S9)) (= (f16 (f63 (f64 f65 ?v0) ?v1)) (f167 (f13 (f14 ?v0) ?v1)))))
(assert (forall ((?v0 S4) (?v1 S5)) (= (f11 (f106 (f107 f108 ?v0) ?v1)) (f168 (f8 (f9 ?v0) ?v1)))))
(assert (forall ((?v0 S12) (?v1 S13)) (= (f21 (f102 (f103 f104 ?v0) ?v1)) (f169 (f18 (f19 ?v0) ?v1)))))
(assert (forall ((?v0 S16) (?v1 S17)) (= (f26 (f98 (f99 f100 ?v0) ?v1)) (f170 (f23 (f24 ?v0) ?v1)))))
(assert (forall ((?v0 S8)) (= (f63 (f64 f65 ?v0) f97) f97)))
(assert (forall ((?v0 S16)) (= (f98 (f99 f100 ?v0) f101) f101)))
(assert (forall ((?v0 S12)) (= (f102 (f103 f104 ?v0) f105) f105)))
(assert (forall ((?v0 S4)) (= (f106 (f107 f108 ?v0) f93) f93)))
(assert (forall ((?v0 S2)) (= (f79 (f95 f96 ?v0) f92) f92)))
(assert (forall ((?v0 S3) (?v1 S3)) (= (= (f53 (f54 f55 ?v0) ?v1) f6) (or (= ?v0 f6) (= ?v1 f6)))))
(assert (forall ((?v0 S3)) (= (f53 (f54 f55 ?v0) f6) f6)))
(assert (forall ((?v0 S3)) (= (f53 (f54 f55 f6) ?v0) f6)))
(assert (forall ((?v0 S3) (?v1 S3) (?v2 S19)) (= (f86 f62 (f73 (f74 (f75 f76 ?v0) ?v1) ?v2)) ?v0)))
(assert (forall ((?v0 S27) (?v1 S28) (?v2 S28) (?v3 S3) (?v4 S3) (?v5 S19)) (= (= (f12 (f66 (f67 (f68 ?v0) ?v1) ?v2) (f73 (f74 (f75 f76 ?v3) ?v4) ?v5)) f1) (= (f41 (f42 (f43 ?v1 ?v3) ?v4) ?v5) f1))))
(assert (= (f3 (f5 f6) f91) f1))
(assert (not (= (f3 (f5 f91) f6) f1)))
(assert (= (f3 (f52 f6) f91) f1))
(assert (forall ((?v0 S19)) (=> (forall ((?v1 S3)) (=> (= (f29 ?v1 (f30 ?v0)) f1) (not (= ?v1 f6)))) (= (f3 (f52 f6) (f45 f56 ?v0)) f1))))
(assert (forall ((?v0 S19) (?v1 S3)) (=> (forall ((?v2 S3)) (=> (= (f29 ?v2 (f30 ?v0)) f1) (not (= ?v2 f6)))) (=> (= (f29 ?v1 (f30 ?v0)) f1) (= (f3 (f5 ?v1) (f45 f56 ?v0)) f1)))))
(assert (forall ((?v0 S19) (?v1 S2)) (=> (forall ((?v2 S3)) (=> (= (f29 ?v2 (f30 ?v0)) f1) (not (= (f3 ?v1 ?v2) f1)))) (= (f79 (f95 f96 ?v1) ?v0) f92))))
(assert (forall ((?v0 S9) (?v1 S8)) (=> (forall ((?v2 S10)) (=> (= (f15 ?v2 (f16 ?v0)) f1) (not (= (f12 ?v1 ?v2) f1)))) (= (f63 (f64 f65 ?v1) ?v0) f97))))
(assert (forall ((?v0 S17) (?v1 S16)) (=> (forall ((?v2 S13)) (=> (= (f25 ?v2 (f26 ?v0)) f1) (not (= (f22 ?v1 ?v2) f1)))) (= (f98 (f99 f100 ?v1) ?v0) f101))))
(assert (forall ((?v0 S13) (?v1 S12)) (=> (forall ((?v2 S14)) (=> (= (f20 ?v2 (f21 ?v0)) f1) (not (= (f17 ?v1 ?v2) f1)))) (= (f102 (f103 f104 ?v1) ?v0) f105))))
(assert (forall ((?v0 S5) (?v1 S4)) (=> (forall ((?v2 S6)) (=> (= (f10 ?v2 (f11 ?v0)) f1) (not (= (f7 ?v1 ?v2) f1)))) (= (f106 (f107 f108 ?v1) ?v0) f93))))
(assert (forall ((?v0 S9) (?v1 S10)) (=> (forall ((?v2 S10)) (=> (= (f15 ?v2 (f16 ?v0)) f1) (not (= (f86 f62 ?v2) f6)))) (=> (forall ((?v2 S10)) (=> (= (f15 ?v2 (f16 ?v0)) f1) (not (= (f86 f60 ?v2) f6)))) (=> (= (f15 ?v1 (f16 (f63 f94 ?v0))) f1) (not (= (f86 f62 ?v1) f6)))))))
(assert (forall ((?v0 S2) (?v1 S2)) (=> (forall ((?v2 S3)) (=> (= (f3 (f5 f6) ?v2) f1) (= (= (f3 ?v0 ?v2) f1) (= (f3 ?v1 ?v2) f1)))) (= (f166 (f4 ?v0)) (f166 (f4 ?v1))))))
(assert (forall ((?v0 S3) (?v1 S3) (?v2 S19)) (= (f86 f60 (f73 (f74 (f75 f76 ?v0) ?v1) ?v2)) (f45 (f171 (f172 f173 f6) f47) ?v2))))
(assert (forall ((?v0 S19) (?v1 S2)) (=> (forall ((?v2 S3)) (=> (= (f29 ?v2 (f30 ?v0)) f1) (= (f3 ?v1 ?v2) f1))) (= (f79 (f95 f96 ?v1) ?v0) ?v0))))
(assert (forall ((?v0 S9) (?v1 S8)) (=> (forall ((?v2 S10)) (=> (= (f15 ?v2 (f16 ?v0)) f1) (= (f12 ?v1 ?v2) f1))) (= (f63 (f64 f65 ?v1) ?v0) ?v0))))
(assert (forall ((?v0 S5) (?v1 S4)) (=> (forall ((?v2 S6)) (=> (= (f10 ?v2 (f11 ?v0)) f1) (= (f7 ?v1 ?v2) f1))) (= (f106 (f107 f108 ?v1) ?v0) ?v0))))
(assert (forall ((?v0 S13) (?v1 S12)) (=> (forall ((?v2 S14)) (=> (= (f20 ?v2 (f21 ?v0)) f1) (= (f17 ?v1 ?v2) f1))) (= (f102 (f103 f104 ?v1) ?v0) ?v0))))
(assert (forall ((?v0 S17) (?v1 S16)) (=> (forall ((?v2 S13)) (=> (= (f25 ?v2 (f26 ?v0)) f1) (= (f22 ?v1 ?v2) f1))) (= (f98 (f99 f100 ?v1) ?v0) ?v0))))
(assert (forall ((?v0 S19) (?v1 S19) (?v2 S2) (?v3 S2)) (=> (= ?v0 ?v1) (=> (forall ((?v4 S3)) (=> (= (f29 ?v4 (f30 ?v1)) f1) (= (= (f3 ?v2 ?v4) f1) (= (f3 ?v3 ?v4) f1)))) (= (f79 (f95 f96 ?v2) ?v0) (f79 (f95 f96 ?v3) ?v1))))))
(assert (forall ((?v0 S9) (?v1 S9) (?v2 S8) (?v3 S8)) (=> (= ?v0 ?v1) (=> (forall ((?v4 S10)) (=> (= (f15 ?v4 (f16 ?v1)) f1) (= (= (f12 ?v2 ?v4) f1) (= (f12 ?v3 ?v4) f1)))) (= (f63 (f64 f65 ?v2) ?v0) (f63 (f64 f65 ?v3) ?v1))))))
(assert (forall ((?v0 S5) (?v1 S5) (?v2 S4) (?v3 S4)) (=> (= ?v0 ?v1) (=> (forall ((?v4 S6)) (=> (= (f10 ?v4 (f11 ?v1)) f1) (= (= (f7 ?v2 ?v4) f1) (= (f7 ?v3 ?v4) f1)))) (= (f106 (f107 f108 ?v2) ?v0) (f106 (f107 f108 ?v3) ?v1))))))
(assert (forall ((?v0 S13) (?v1 S13) (?v2 S12) (?v3 S12)) (=> (= ?v0 ?v1) (=> (forall ((?v4 S14)) (=> (= (f20 ?v4 (f21 ?v1)) f1) (= (= (f17 ?v2 ?v4) f1) (= (f17 ?v3 ?v4) f1)))) (= (f102 (f103 f104 ?v2) ?v0) (f102 (f103 f104 ?v3) ?v1))))))
(assert (forall ((?v0 S17) (?v1 S17) (?v2 S16) (?v3 S16)) (=> (= ?v0 ?v1) (=> (forall ((?v4 S13)) (=> (= (f25 ?v4 (f26 ?v1)) f1) (= (= (f22 ?v2 ?v4) f1) (= (f22 ?v3 ?v4) f1)))) (= (f98 (f99 f100 ?v2) ?v0) (f98 (f99 f100 ?v3) ?v1))))))
(assert (forall ((?v0 S9) (?v1 S9) (?v2 S31) (?v3 S31)) (=> (= ?v0 ?v1) (=> (forall ((?v4 S10)) (=> (= (f15 ?v4 (f16 ?v1)) f1) (= (f49 ?v2 ?v4) (f49 ?v3 ?v4)))) (= (f63 (f69 f70 ?v2) ?v0) (f63 (f69 f70 ?v3) ?v1))))))
(assert (forall ((?v0 S9) (?v1 S9) (?v2 S36) (?v3 S36)) (=> (= ?v0 ?v1) (=> (forall ((?v4 S10)) (=> (= (f15 ?v4 (f16 ?v1)) f1) (= (f86 ?v2 ?v4) (f86 ?v3 ?v4)))) (= (f57 (f58 f59 ?v2) ?v0) (f57 (f58 f59 ?v3) ?v1))))))
(assert (forall ((?v0 S9) (?v1 S9) (?v2 S78) (?v3 S78)) (=> (= ?v0 ?v1) (=> (forall ((?v4 S10)) (=> (= (f15 ?v4 (f16 ?v1)) f1) (= (f141 ?v2 ?v4) (f141 ?v3 ?v4)))) (= (f87 (f139 f140 ?v2) ?v0) (f87 (f139 f140 ?v3) ?v1))))))
(assert (forall ((?v0 S9) (?v1 S9) (?v2 S83) (?v3 S83)) (=> (= ?v0 ?v1) (=> (forall ((?v4 S10)) (=> (= (f15 ?v4 (f16 ?v1)) f1) (= (f149 ?v2 ?v4) (f149 ?v3 ?v4)))) (= (f146 (f147 f148 ?v2) ?v0) (f146 (f147 f148 ?v3) ?v1))))))
(assert (forall ((?v0 S9) (?v1 S9) (?v2 S86) (?v3 S86)) (=> (= ?v0 ?v1) (=> (forall ((?v4 S10)) (=> (= (f15 ?v4 (f16 ?v1)) f1) (= (f153 ?v2 ?v4) (f153 ?v3 ?v4)))) (= (f150 (f151 f152 ?v2) ?v0) (f150 (f151 f152 ?v3) ?v1))))))
(assert (forall ((?v0 S19) (?v1 S19) (?v2 S89) (?v3 S89)) (=> (= ?v0 ?v1) (=> (forall ((?v4 S3)) (=> (= (f29 ?v4 (f30 ?v1)) f1) (= (f157 ?v2 ?v4) (f157 ?v3 ?v4)))) (= (f154 (f155 f156 ?v2) ?v0) (f154 (f155 f156 ?v3) ?v1))))))
(assert (forall ((?v0 S19) (?v1 S19) (?v2 S80) (?v3 S80)) (=> (= ?v0 ?v1) (=> (forall ((?v4 S3)) (=> (= (f29 ?v4 (f30 ?v1)) f1) (= (f145 ?v2 ?v4) (f145 ?v3 ?v4)))) (= (f142 (f143 f144 ?v2) ?v0) (f142 (f143 f144 ?v3) ?v1))))))
(assert (forall ((?v0 S5) (?v1 S5) (?v2 S66) (?v3 S66)) (=> (= ?v0 ?v1) (=> (forall ((?v4 S6)) (=> (= (f10 ?v4 (f11 ?v1)) f1) (= (f126 ?v2 ?v4) (f126 ?v3 ?v4)))) (= (f123 (f124 f125 ?v2) ?v0) (f123 (f124 f125 ?v3) ?v1))))))
(assert (forall ((?v0 S5) (?v1 S5) (?v2 S69) (?v3 S69)) (=> (= ?v0 ?v1) (=> (forall ((?v4 S6)) (=> (= (f10 ?v4 (f11 ?v1)) f1) (= (f130 ?v2 ?v4) (f130 ?v3 ?v4)))) (= (f127 (f128 f129 ?v2) ?v0) (f127 (f128 f129 ?v3) ?v1))))))
(assert (forall ((?v0 S5) (?v1 S5) (?v2 S63) (?v3 S63)) (=> (= ?v0 ?v1) (=> (forall ((?v4 S6)) (=> (= (f10 ?v4 (f11 ?v1)) f1) (= (f122 ?v2 ?v4) (f122 ?v3 ?v4)))) (= (f119 (f120 f121 ?v2) ?v0) (f119 (f120 f121 ?v3) ?v1))))))
(assert (forall ((?v0 S5) (?v1 S5) (?v2 S60) (?v3 S60)) (=> (= ?v0 ?v1) (=> (forall ((?v4 S6)) (=> (= (f10 ?v4 (f11 ?v1)) f1) (= (f118 ?v2 ?v4) (f118 ?v3 ?v4)))) (= (f115 (f116 f117 ?v2) ?v0) (f115 (f116 f117 ?v3) ?v1))))))
(assert (forall ((?v0 S13) (?v1 S13) (?v2 S92) (?v3 S92)) (=> (= ?v0 ?v1) (=> (forall ((?v4 S14)) (=> (= (f20 ?v4 (f21 ?v1)) f1) (= (f161 ?v2 ?v4) (f161 ?v3 ?v4)))) (= (f158 (f159 f160 ?v2) ?v0) (f158 (f159 f160 ?v3) ?v1))))))
(assert (forall ((?v0 S13) (?v1 S13) (?v2 S72) (?v3 S72)) (=> (= ?v0 ?v1) (=> (forall ((?v4 S14)) (=> (= (f20 ?v4 (f21 ?v1)) f1) (= (f134 ?v2 ?v4) (f134 ?v3 ?v4)))) (= (f131 (f132 f133 ?v2) ?v0) (f131 (f132 f133 ?v3) ?v1))))))
(assert (forall ((?v0 S17) (?v1 S17) (?v2 S95) (?v3 S95)) (=> (= ?v0 ?v1) (=> (forall ((?v4 S13)) (=> (= (f25 ?v4 (f26 ?v1)) f1) (= (f165 ?v2 ?v4) (f165 ?v3 ?v4)))) (= (f162 (f163 f164 ?v2) ?v0) (f162 (f163 f164 ?v3) ?v1))))))
(assert (forall ((?v0 S17) (?v1 S17) (?v2 S75) (?v3 S75)) (=> (= ?v0 ?v1) (=> (forall ((?v4 S13)) (=> (= (f25 ?v4 (f26 ?v1)) f1) (= (f138 ?v2 ?v4) (f138 ?v3 ?v4)))) (= (f135 (f136 f137 ?v2) ?v0) (f135 (f136 f137 ?v3) ?v1))))))
(check-sat)
(exit)
